
===== New CPLEX run =====
Instance: /home/yorig/tuner/mpils-tests/instances/miplib/easy/lotsize.mps
Config: /scratch/yorig/mpils-results-grid-seconds-5-watchdog/easy/24proc/seed-5/4_lotsize_seed-5_20260504_011421/expansion/config_param_CPXPARAM_Preprocessing_CoeffReduce_0_iter_3.prm
========================

Selected objective sense:  MINIMIZE
Selected objective  name:  R1921
Selected RHS        name:  B
Selected bound      name:  BOUND
Wall watchdog: enabled factor=1 grace=1 limit=6 seconds
Version identifier: 22.1.2.0 | 2024-11-26 | 0edbb82fd
CPXPARAM_Threads                                 8
CPXPARAM_Parallel                                1
CPXPARAM_MIP_Cuts_Cliques                        -1
CPXPARAM_Preprocessing_CoeffReduce               0
CPXPARAM_MIP_Cuts_Covers                         -1
CPXPARAM_MIP_Cuts_Implied                        1
CPXPARAM_MIP_Limits_GomoryCand                   25
CPXPARAM_MIP_Cuts_Gomory                         1
CPXPARAM_MIP_Cuts_PathCut                        2
CPXPARAM_MIP_Cuts_Disjunctive                    -1
CPXPARAM_Emphasis_MIP                            1
CPXPARAM_Preprocessing_Symmetry                  2
CPXPARAM_TimeLimit                               5
Tried aggregator 1 time.
MIP Presolve eliminated 590 rows and 0 columns.
MIP Presolve added 1190 rows and 0 columns.
Reduced MIP has 2520 rows, 2985 columns, and 7765 nonzeros.
Reduced MIP has 1195 binaries, 0 generals, 0 SOSs, and 0 indicators.
Presolve time = 0.00 sec. (4.28 ticks)
Probing fixed 0 vars, tightened 5146 bounds.
Probing time = 0.01 sec. (18.21 ticks)
Tried aggregator 2 times.
MIP Presolve eliminated 5 rows and 0 columns.
MIP Presolve modified 616 coefficients.
Aggregator did 10 substitutions.
Reduced MIP has 2505 rows, 2975 columns, and 7735 nonzeros.
Reduced MIP has 1195 binaries, 0 generals, 0 SOSs, and 0 indicators.
Presolve time = 0.00 sec. (7.11 ticks)
Probing fixed 0 vars, tightened 2342 bounds.
Probing time = 0.00 sec. (6.42 ticks)
Clique table members: 190.
MIP emphasis: integer feasibility.
MIP search method: dynamic search.
Parallel mode: deterministic, using up to 8 threads.
Root relaxation solution time = 0.01 sec. (9.68 ticks)

        Nodes                                         Cuts/
   Node  Left     Objective  IInf  Best Integer    Best Bound    ItCnt     Gap

      0     0   348385.3466   473                 348385.3466      882         
      0     0   573438.4435   465                   Cuts: 726     1895         
      0     0   803349.0707   700                   Cuts: 726     2794         
*     0+    0                       1.00206e+07   803349.0707            91.98%
*     0+    0                      7923948.0000   803349.0707            89.86%
      0     0   948954.1197   700  7923948.0000     Cuts: 726     3615   88.02%
Detecting symmetries...
      0     2   948954.1197   700  7923948.0000   950184.8887     3615   88.01%
Elapsed time = 0.41 sec. (561.81 ticks, tree = 0.02 MB, solutions = 2)
    241   210   992128.7488   751  7923948.0000   950184.8887     8676   88.01%
    593   519  1006623.4786   692  7923948.0000   950184.8887    12082   88.01%
   1276  1163  1051697.6903   561  7923948.0000   950184.8887    19743   88.01%

Performing restart 1

Repeating presolve.
Tried aggregator 1 time.
MIP Presolve modified 590 coefficients.
Reduced MIP has 2505 rows, 2975 columns, and 7735 nonzeros.
Reduced MIP has 1195 binaries, 0 generals, 0 SOSs, and 0 indicators.
Presolve time = 0.00 sec. (5.63 ticks)
Tried aggregator 1 time.
MIP Presolve modified 489 coefficients.
Reduced MIP has 2505 rows, 2975 columns, and 7735 nonzeros.
Reduced MIP has 1195 binaries, 0 generals, 0 SOSs, and 0 indicators.
Presolve time = 0.00 sec. (5.60 ticks)
Represolve time = 0.02 sec. (20.96 ticks)
*  1732+    0                      7198279.0000   962207.3892            86.63%
   1732     0  1089915.4146   746  7198279.0000     Cuts: 726    30094   84.86%
   1732     0  1185309.7294   700  7198279.0000     Cuts: 726    30918   83.53%
   1732     0  1262772.6520   711  7198279.0000     Cuts: 726    31913   82.46%
   1732     2  1262772.6520   711  7198279.0000  1262772.6520    31913   82.46%
   1749    19  1282317.1655   641  7198279.0000  1262779.0113    32722   82.46%
   1769    39  1292315.4323   587  7198279.0000  1262779.0113    33380   82.46%
   1779     4  1264176.2770   687  7198279.0000  1262779.0113    32067   82.46%
   1789    58  1371425.3026   668  7198279.0000  1263965.4844    41060   82.44%
   1809    78  1388089.7053   630  7198279.0000  1263965.4844    50645   82.44%
   2057   276  1388360.1909   636  7198279.0000  1271564.3290    70789   82.34%
Elapsed time = 4.12 sec. (5670.38 ticks, tree = 1.05 MB, solutions = 3)
*  2376+  548                      3542673.0000  1271564.3290            64.11%
*  2378+  548                      3486040.0000  1271564.3290            63.52%
*  2379+  548                      2987152.0000  1271564.3290            57.43%
*  2379+  548                      2936836.0000  1271564.3290            56.70%
*  2386+  512                      2916497.0000  1271564.3290            56.40%
*  2391+  512                      2908422.0000  1271564.3290            56.28%
*  2395+  512                      2898545.0000  1271564.3290            56.13%
*  2488+  616                      1881921.0000  1271564.3290            32.43%
   2490   683  1695692.2260   135  1881921.0000  1271564.3290    91446   32.43%
*  2614+  734                      1833037.0000  1271564.3290            30.63%
*  2617+  726                      1823142.0000  1271564.3290            30.25%
*  2636+  718                      1786375.0000  1271564.3290            28.82%

Implied bound cuts applied:  15
Flow cuts applied:  600
Mixed integer rounding cuts applied:  1043
Flow path cuts applied:  125
Multi commodity flow cuts applied:  19
Lift and project cuts applied:  14
Gomory fractional cuts applied:  2

Root node processing (before b&c):
  Real time             =    0.40 sec. (559.74 ticks)
Parallel b&c, 8 threads:
  Real time             =    4.60 sec. (6373.04 ticks)
  Sync time (average)   =    0.34 sec.
  Wait time (average)   =    0.01 sec.
                          ------------
Total (root+branch&cut) =    5.00 sec. (6932.78 ticks)
Gap: 28.82%
Upper bound: 1.78638e+06
Lower bound: 1.27156e+06
Termination status: Normal
End of CPLEX run. Time: 5.00603 seconds
